problem_generation/data/GISP/train/er_n=60_m=1023_p=0.60_SET2_setparam=100.00_alpha=0.50_513.lp
maximize
OBJ:100x0 + 100x1 + 100x2 + 100x3 + 100x4 + 100x5 + 100x6 + 100x7 + 100x8 + 100x9 + 100x10 + 100x11 + 100x12 + 100x13 + 100x14 + 100x15 + 100x16 + 100x17 + 100x18 + 100x19 + 100x20 + 100x21 + 100x22 + 100x23 + 100x24 + 100x25 + 100x26 + 100x27 + 100x28 + 100x29 + 100x30 + 100x31 + 100x32 + 100x33 + 100x34 + 100x35 + 100x36 + 100x37 + 100x38 + 100x39 + 100x40 + 100x41 + 100x42 + 100x43 + 100x44 + 100x45 + 100x46 + 100x47 + 100x48 + 100x49 + 100x50 + 100x51 + 100x52 + 100x53 + 100x54 + 100x55 + 100x56 + 100x57 + 100x58 + 100x59 - y36_53 - y26_30 - y28_58 - y18_35 - y8_9 - y0_5 - y48_54 - y0_14 - y6_48 - y0_23 - y6_57 - y11_23 - y21_55 - y33_38 - y44_47 - y25_43 - y10_54 - y2_50 - y3_15 - y25_52 - y22_37 - y3_33 - y14_33 - y14_42 - y47_48 - y17_53 - y9_49 - y29_36 - y21_32 - y29_45 - y48_58 - y21_41 - y40_54 - y10_49 - y44_51 - y2_45 - y25_47 - y22_23 - y32_55 - y22_32 - y14_28 - y3_37 - y14_37 - y55_56 - y28_39 - y9_44 - y17_57 - y28_57 - y21_27 - y48_53 - y6_47 - y29_49 - y40_49 - y21_54 - y10_17 - y2_13 - y25_33 - y32_41 - y22_27 - y13_46 - y43_59 - y1_53 - y7_11 - y5_41 - y28_43 - y9_39 - y5_50 - y28_52 - y21_22 - y6_33 - y21_31 - y39_57 - y31_53 - y10_39 - y13_41 - y3_18 - y32_54 - y1_48 - y13_50 - y9_25 - y5_36 - y36_51 - y9_34 - y9_43 - y5_54 - y6_19 - y9_52 - y50_53 - y21_26 - y2_3 - y20_39 - y10_16 - y39_52 - y2_12 - y20_57 - y23_53 - y13_27 - y24_27 - y13_36 - y24_36 - y16_32 - y35_45 - y16_41 - y1_52 - y13_54 - y16_59 - y17_24 - y3_47 - y17_42 - y5_58 - y6_32 - y0_56 - y20_34 - y31_34 - y10_11 - y39_47 - y2_7 - y12_39 - y20_52 - y31_52 - y4_44 - y23_57 - y24_31 - y1_38 - y16_36 - y5_8 - y17_19 - y38_51 - y49_51 - y5_26 - y28_37 - y27_41 - y50_52 - y8_46 - y8_55 - y30_55 - y11_51 - y20_38 - y31_38 - y4_39 - y13_17 - y1_24 - y16_22 - y24_35 - y1_51 - y5_12 - y38_46 - y57_59 - y9_19 - y15_53 - y5_30 - y38_55 - y49_55 - y6_13 - y8_32 - y27_45 - y0_37 - y12_20 - y12_29 - y23_29 - y20_42 - y31_42 - y12_38 - y23_38 - y31_51 - y24_30 - y37_58 - y16_35 - y1_46 - y5_16 - y9_14 - y26_48 - y5_25 - y49_50 - y49_59 - y19_27 - y27_49 - y11_32 - y30_45 - y0_50 - y4_11 - y0_59 - y12_24 - y23_24 - y20_37 - y4_20 - y31_37 - y1_5 - y4_38 - y1_14 - y13_16 - y34_48 - y37_44 - y56_57 - y3_51 - y26_34 - y38_45 - y49_54 - y19_22 - y27_35 - y19_31 - y8_31 - y30_31 - y11_27 - y19_40 - y27_53 - y41_46 - y0_54 - y12_28 - y23_28 - y4_24 - y12_37 - y4_33 - y22_41 - y34_52 - y45_52 - y3_46 - y22_59 - y3_55 - y15_20 - y38_40 - y38_49 - y18_43 - y0_13 - y11_13 - y27_39 - y0_22 - y0_31 - y11_31 - y8_44 - y0_40 - y11_49 - y12_14 - y4_10 - y33_46 - y10_53 - y1_4 - y34_47 - y45_47 - y14_41 - y34_56 - y45_56 - y3_50 - y14_59 - y15_24 - y26_42 - y7_38 - y18_38 - y18_47 - y19_21 - y48_57 - y8_30 - y11_35 - y41_54 - y33_50 - y33_59 - y44_59 - y3_27 - y14_27 - y22_40 - y34_42 - y22_49 - y34_51 - y3_45 - y37_56 - y7_15 - y15_28 - y26_28 - y7_24 - y15_37 - y26_37 - y48_52 - y11_12 - y21_44 - y0_21 - y21_53 - y4_9 - y10_43 - y2_39 - y2_57 - y3_22 - y25_59 - y3_40 - y3_49 - y7_19 - y47_55 - y21_39 - y0_16 - y11_16 - y33_40 - y44_49 - y10_56 - y25_54 - y3_17 - y14_17 - y22_30 - y3_26 - y13_58 - y14_44 - y15_18 - y7_14 - y47_59 - y9_42 - y5_53 - y48_51 - y6_45 - y40_47 - y6_54 - y40_56 - y10_24 - y2_29 - y51_52 - y43_48 - y3_21 - y35_53 - y3_30 - y5_48 - y5_57 - y6_22 - y6_31 - y6_40 - y40_42 - y29_51 - y2_6 - y10_19 - y2_24 - y10_37 - y35_39 - y14_25 - y35_57 - y17_18 - y9_23 - y47_49 - y17_45 - y17_54 - y28_54 - y21_24 - y6_35 - y10_14 - y39_50 - y20_46 - y10_23 - y2_19 - y20_55 - y13_25 - y2_37 - y13_34 - y32_47 - y32_56 - y16_57 - y17_22 - y5_29 - y5_38 - y5_47 - y6_12 - y28_49 - y5_56 - y58_59 - y42_51 - y31_50 - y23_55 - y4_51 - y32_42 - y51_55 - y13_38 - y35_38 - y32_51 - y1_45 - y35_47 - y16_43 - y13_56 - y24_56 - y36_39 - y38_58 - y9_31 - y28_44 - y5_51 - y6_25 - y27_57 - y19_53 - y30_53 - y20_27 - y20_36 - y31_36 - y10_13 - y12_32 - y23_32 - y2_9 - y39_49 - y2_18 - y54_56 - y12_50 - y23_50 - y12_59 - y16_20 - y16_29 - y24_42 - y35_42 - y16_38 - y1_49 - y46_57 - y9_26 - y27_52 - y19_48 - y30_48 - y42_59 - y20_40 - y31_40 - y12_36 - y23_36 - y12_45 - y23_45 - y20_58 - y12_54 - y23_54 - y4_50 - y24_28 - y1_35 - y16_42 - y46_52 - y38_48 - y9_21 - y15_55 - y26_55 - y30_34 - y8_43 - y27_56 - y42_54 - y23_31 - y20_44 - y31_44 - y12_40 - y1_3 - y1_21 - y53_59 - y16_28 - y46_47 - y26_41 - y49_52 - y7_55 - y18_55 - y19_38 - y42_49 - y0_43 - y19_56 - y20_21 - y12_17 - y41_53 - y20_30 - y12_26 - y33_58 - y44_58 - y23_35 - y1_25 - y16_23 - y22_57 - y14_53 - y18_32 - y15_45 - y7_41 - y15_54 - y26_54 - y27_28 - y7_59 - y18_59 - y19_33 - y11_29 - y19_42 - y0_38 - y11_38 - y19_51 - y12_30 - y23_30 - y22_34 - y34_45 - y3_39 - y14_57 - y15_22 - y37_59 - y15_31 - y18_27 - y38_42 - y15_49 - y7_45 - y0_6 - y7_54 - y18_54 - y0_24 - y11_24 - y8_37 - y11_33 - y0_42 - y2_51 - y3_34 - y14_34 - y3_43 - y14_52 - y15_17 - y37_54 - y15_26 - y7_22 - y15_35 - y0_1 - y48_50 - y19_23 - y0_19 - y30_32 - y41_47 - y4_7 - y52_56 - y25_48 - y3_20 - y14_38 - y14_47
 Subject to
C1: x0+x1-y0_1 <=1 
C2: x0+x2 <=1 
C3: x0+x5-y0_5 <=1 
C4: x0+x6-y0_6 <=1 
C5: x0+x8 <=1 
C6: x0+x13-y0_13 <=1 
C7: x0+x14-y0_14 <=1 
C8: x0+x16-y0_16 <=1 
C9: x0+x19-y0_19 <=1 
C10: x0+x20 <=1 
C11: x0+x21-y0_21 <=1 
C12: x0+x22-y0_22 <=1 
C13: x0+x23-y0_23 <=1 
C14: x0+x24-y0_24 <=1 
C15: x0+x25 <=1 
C16: x0+x26 <=1 
C17: x0+x28 <=1 
C18: x0+x30 <=1 
C19: x0+x31-y0_31 <=1 
C20: x0+x32 <=1 
C21: x0+x34 <=1 
C22: x0+x36 <=1 
C23: x0+x37-y0_37 <=1 
C24: x0+x38-y0_38 <=1 
C25: x0+x40-y0_40 <=1 
C26: x0+x42-y0_42 <=1 
C27: x0+x43-y0_43 <=1 
C28: x0+x47 <=1 
C29: x0+x50-y0_50 <=1 
C30: x0+x52 <=1 
C31: x0+x53 <=1 
C32: x0+x54-y0_54 <=1 
C33: x0+x56-y0_56 <=1 
C34: x0+x59-y0_59 <=1 
C35: x1+x3-y1_3 <=1 
C36: x1+x4-y1_4 <=1 
C37: x1+x5-y1_5 <=1 
C38: x1+x6 <=1 
C39: x1+x7 <=1 
C40: x1+x8 <=1 
C41: x1+x9 <=1 
C42: x1+x10 <=1 
C43: x1+x14-y1_14 <=1 
C44: x1+x19 <=1 
C45: x1+x20 <=1 
C46: x1+x21-y1_21 <=1 
C47: x1+x22 <=1 
C48: x1+x24-y1_24 <=1 
C49: x1+x25-y1_25 <=1 
C50: x1+x29 <=1 
C51: x1+x32 <=1 
C52: x1+x33 <=1 
C53: x1+x34 <=1 
C54: x1+x35-y1_35 <=1 
C55: x1+x38-y1_38 <=1 
C56: x1+x39 <=1 
C57: x1+x45-y1_45 <=1 
C58: x1+x46-y1_46 <=1 
C59: x1+x47 <=1 
C60: x1+x48-y1_48 <=1 
C61: x1+x49-y1_49 <=1 
C62: x1+x51-y1_51 <=1 
C63: x1+x52-y1_52 <=1 
C64: x1+x53-y1_53 <=1 
C65: x1+x55 <=1 
C66: x1+x58 <=1 
C67: x2+x3-y2_3 <=1 
C68: x2+x4 <=1 
C69: x2+x6-y2_6 <=1 
C70: x2+x7-y2_7 <=1 
C71: x2+x9-y2_9 <=1 
C72: x2+x11 <=1 
C73: x2+x12-y2_12 <=1 
C74: x2+x13-y2_13 <=1 
C75: x2+x14 <=1 
C76: x2+x17 <=1 
C77: x2+x18-y2_18 <=1 
C78: x2+x19-y2_19 <=1 
C79: x2+x21 <=1 
C80: x2+x24-y2_24 <=1 
C81: x2+x29-y2_29 <=1 
C82: x2+x30 <=1 
C83: x2+x31 <=1 
C84: x2+x32 <=1 
C85: x2+x34 <=1 
C86: x2+x37-y2_37 <=1 
C87: x2+x39-y2_39 <=1 
C88: x2+x40 <=1 
C89: x2+x44 <=1 
C90: x2+x45-y2_45 <=1 
C91: x2+x46 <=1 
C92: x2+x48 <=1 
C93: x2+x49 <=1 
C94: x2+x50-y2_50 <=1 
C95: x2+x51-y2_51 <=1 
C96: x2+x52 <=1 
C97: x2+x54 <=1 
C98: x2+x55 <=1 
C99: x2+x56 <=1 
C100: x2+x57-y2_57 <=1 
C101: x2+x58 <=1 
C102: x2+x59 <=1 
C103: x3+x4 <=1 
C104: x3+x11 <=1 
C105: x3+x13 <=1 
C106: x3+x15-y3_15 <=1 
C107: x3+x17-y3_17 <=1 
C108: x3+x18-y3_18 <=1 
C109: x3+x20-y3_20 <=1 
C110: x3+x21-y3_21 <=1 
C111: x3+x22-y3_22 <=1 
C112: x3+x23 <=1 
C113: x3+x24 <=1 
C114: x3+x26-y3_26 <=1 
C115: x3+x27-y3_27 <=1 
C116: x3+x28 <=1 
C117: x3+x29 <=1 
C118: x3+x30-y3_30 <=1 
C119: x3+x31 <=1 
C120: x3+x33-y3_33 <=1 
C121: x3+x34-y3_34 <=1 
C122: x3+x36 <=1 
C123: x3+x37-y3_37 <=1 
C124: x3+x38 <=1 
C125: x3+x39-y3_39 <=1 
C126: x3+x40-y3_40 <=1 
C127: x3+x42 <=1 
C128: x3+x43-y3_43 <=1 
C129: x3+x44 <=1 
C130: x3+x45-y3_45 <=1 
C131: x3+x46-y3_46 <=1 
C132: x3+x47-y3_47 <=1 
C133: x3+x49-y3_49 <=1 
C134: x3+x50-y3_50 <=1 
C135: x3+x51-y3_51 <=1 
C136: x3+x52 <=1 
C137: x3+x54 <=1 
C138: x3+x55-y3_55 <=1 
C139: x3+x56 <=1 
C140: x3+x59 <=1 
C141: x4+x7-y4_7 <=1 
C142: x4+x8 <=1 
C143: x4+x9-y4_9 <=1 
C144: x4+x10-y4_10 <=1 
C145: x4+x11-y4_11 <=1 
C146: x4+x13 <=1 
C147: x4+x14 <=1 
C148: x4+x16 <=1 
C149: x4+x20-y4_20 <=1 
C150: x4+x24-y4_24 <=1 
C151: x4+x25 <=1 
C152: x4+x26 <=1 
C153: x4+x28 <=1 
C154: x4+x29 <=1 
C155: x4+x31 <=1 
C156: x4+x33-y4_33 <=1 
C157: x4+x34 <=1 
C158: x4+x36 <=1 
C159: x4+x38-y4_38 <=1 
C160: x4+x39-y4_39 <=1 
C161: x4+x44-y4_44 <=1 
C162: x4+x47 <=1 
C163: x4+x49 <=1 
C164: x4+x50-y4_50 <=1 
C165: x4+x51-y4_51 <=1 
C166: x4+x56 <=1 
C167: x4+x58 <=1 
C168: x5+x8-y5_8 <=1 
C169: x5+x12-y5_12 <=1 
C170: x5+x13 <=1 
C171: x5+x15 <=1 
C172: x5+x16-y5_16 <=1 
C173: x5+x25-y5_25 <=1 
C174: x5+x26-y5_26 <=1 
C175: x5+x27 <=1 
C176: x5+x28 <=1 
C177: x5+x29-y5_29 <=1 
C178: x5+x30-y5_30 <=1 
C179: x5+x32 <=1 
C180: x5+x36-y5_36 <=1 
C181: x5+x38-y5_38 <=1 
C182: x5+x41-y5_41 <=1 
C183: x5+x44 <=1 
C184: x5+x47-y5_47 <=1 
C185: x5+x48-y5_48 <=1 
C186: x5+x49 <=1 
C187: x5+x50-y5_50 <=1 
C188: x5+x51-y5_51 <=1 
C189: x5+x52 <=1 
C190: x5+x53-y5_53 <=1 
C191: x5+x54-y5_54 <=1 
C192: x5+x56-y5_56 <=1 
C193: x5+x57-y5_57 <=1 
C194: x5+x58-y5_58 <=1 
C195: x5+x59 <=1 
C196: x6+x9 <=1 
C197: x6+x10 <=1 
C198: x6+x12-y6_12 <=1 
C199: x6+x13-y6_13 <=1 
C200: x6+x19-y6_19 <=1 
C201: x6+x21 <=1 
C202: x6+x22-y6_22 <=1 
C203: x6+x23 <=1 
C204: x6+x25-y6_25 <=1 
C205: x6+x29 <=1 
C206: x6+x30 <=1 
C207: x6+x31-y6_31 <=1 
C208: x6+x32-y6_32 <=1 
C209: x6+x33-y6_33 <=1 
C210: x6+x34 <=1 
C211: x6+x35-y6_35 <=1 
C212: x6+x40-y6_40 <=1 
C213: x6+x42 <=1 
C214: x6+x45-y6_45 <=1 
C215: x6+x47-y6_47 <=1 
C216: x6+x48-y6_48 <=1 
C217: x6+x54-y6_54 <=1 
C218: x6+x57-y6_57 <=1 
C219: x6+x58 <=1 
C220: x6+x59 <=1 
C221: x7+x10 <=1 
C222: x7+x11-y7_11 <=1 
C223: x7+x14-y7_14 <=1 
C224: x7+x15-y7_15 <=1 
C225: x7+x16 <=1 
C226: x7+x17 <=1 
C227: x7+x18 <=1 
C228: x7+x19-y7_19 <=1 
C229: x7+x22-y7_22 <=1 
C230: x7+x24-y7_24 <=1 
C231: x7+x25 <=1 
C232: x7+x28 <=1 
C233: x7+x29 <=1 
C234: x7+x30 <=1 
C235: x7+x33 <=1 
C236: x7+x35 <=1 
C237: x7+x36 <=1 
C238: x7+x38-y7_38 <=1 
C239: x7+x41-y7_41 <=1 
C240: x7+x45-y7_45 <=1 
C241: x7+x49 <=1 
C242: x7+x51 <=1 
C243: x7+x52 <=1 
C244: x7+x54-y7_54 <=1 
C245: x7+x55-y7_55 <=1 
C246: x7+x56 <=1 
C247: x7+x59-y7_59 <=1 
C248: x8+x9-y8_9 <=1 
C249: x8+x10 <=1 
C250: x8+x11 <=1 
C251: x8+x12 <=1 
C252: x8+x13 <=1 
C253: x8+x19 <=1 
C254: x8+x22 <=1 
C255: x8+x25 <=1 
C256: x8+x26 <=1 
C257: x8+x27 <=1 
C258: x8+x30-y8_30 <=1 
C259: x8+x31-y8_31 <=1 
C260: x8+x32-y8_32 <=1 
C261: x8+x34 <=1 
C262: x8+x35 <=1 
C263: x8+x36 <=1 
C264: x8+x37-y8_37 <=1 
C265: x8+x38 <=1 
C266: x8+x39 <=1 
C267: x8+x40 <=1 
C268: x8+x42 <=1 
C269: x8+x43-y8_43 <=1 
C270: x8+x44-y8_44 <=1 
C271: x8+x45 <=1 
C272: x8+x46-y8_46 <=1 
C273: x8+x55-y8_55 <=1 
C274: x9+x12 <=1 
C275: x9+x14-y9_14 <=1 
C276: x9+x17 <=1 
C277: x9+x19-y9_19 <=1 
C278: x9+x21-y9_21 <=1 
C279: x9+x22 <=1 
C280: x9+x23-y9_23 <=1 
C281: x9+x25-y9_25 <=1 
C282: x9+x26-y9_26 <=1 
C283: x9+x28 <=1 
C284: x9+x31-y9_31 <=1 
C285: x9+x33 <=1 
C286: x9+x34-y9_34 <=1 
C287: x9+x35 <=1 
C288: x9+x36 <=1 
C289: x9+x39-y9_39 <=1 
C290: x9+x42-y9_42 <=1 
C291: x9+x43-y9_43 <=1 
C292: x9+x44-y9_44 <=1 
C293: x9+x45 <=1 
C294: x9+x46 <=1 
C295: x9+x47 <=1 
C296: x9+x48 <=1 
C297: x9+x49-y9_49 <=1 
C298: x9+x51 <=1 
C299: x9+x52-y9_52 <=1 
C300: x9+x55 <=1 
C301: x9+x57 <=1 
C302: x10+x11-y10_11 <=1 
C303: x10+x13-y10_13 <=1 
C304: x10+x14-y10_14 <=1 
C305: x10+x16-y10_16 <=1 
C306: x10+x17-y10_17 <=1 
C307: x10+x19-y10_19 <=1 
C308: x10+x20 <=1 
C309: x10+x22 <=1 
C310: x10+x23-y10_23 <=1 
C311: x10+x24-y10_24 <=1 
C312: x10+x30 <=1 
C313: x10+x32 <=1 
C314: x10+x37-y10_37 <=1 
C315: x10+x38 <=1 
C316: x10+x39-y10_39 <=1 
C317: x10+x40 <=1 
C318: x10+x43-y10_43 <=1 
C319: x10+x44 <=1 
C320: x10+x46 <=1 
C321: x10+x47 <=1 
C322: x10+x49-y10_49 <=1 
C323: x10+x53-y10_53 <=1 
C324: x10+x54-y10_54 <=1 
C325: x10+x55 <=1 
C326: x10+x56-y10_56 <=1 
C327: x10+x58 <=1 
C328: x10+x59 <=1 
C329: x11+x12-y11_12 <=1 
C330: x11+x13-y11_13 <=1 
C331: x11+x14 <=1 
C332: x11+x15 <=1 
C333: x11+x16-y11_16 <=1 
C334: x11+x23-y11_23 <=1 
C335: x11+x24-y11_24 <=1 
C336: x11+x25 <=1 
C337: x11+x27-y11_27 <=1 
C338: x11+x28 <=1 
C339: x11+x29-y11_29 <=1 
C340: x11+x31-y11_31 <=1 
C341: x11+x32-y11_32 <=1 
C342: x11+x33-y11_33 <=1 
C343: x11+x35-y11_35 <=1 
C344: x11+x36 <=1 
C345: x11+x37 <=1 
C346: x11+x38-y11_38 <=1 
C347: x11+x40 <=1 
C348: x11+x42 <=1 
C349: x11+x44 <=1 
C350: x11+x45 <=1 
C351: x11+x47 <=1 
C352: x11+x49-y11_49 <=1 
C353: x11+x51-y11_51 <=1 
C354: x11+x53 <=1 
C355: x11+x58 <=1 
C356: x12+x14-y12_14 <=1 
C357: x12+x15 <=1 
C358: x12+x17-y12_17 <=1 
C359: x12+x19 <=1 
C360: x12+x20-y12_20 <=1 
C361: x12+x22 <=1 
C362: x12+x24-y12_24 <=1 
C363: x12+x25 <=1 
C364: x12+x26-y12_26 <=1 
C365: x12+x28-y12_28 <=1 
C366: x12+x29-y12_29 <=1 
C367: x12+x30-y12_30 <=1 
C368: x12+x31 <=1 
C369: x12+x32-y12_32 <=1 
C370: x12+x33 <=1 
C371: x12+x34 <=1 
C372: x12+x35 <=1 
C373: x12+x36-y12_36 <=1 
C374: x12+x37-y12_37 <=1 
C375: x12+x38-y12_38 <=1 
C376: x12+x39-y12_39 <=1 
C377: x12+x40-y12_40 <=1 
C378: x12+x41 <=1 
C379: x12+x44 <=1 
C380: x12+x45-y12_45 <=1 
C381: x12+x50-y12_50 <=1 
C382: x12+x54-y12_54 <=1 
C383: x12+x55 <=1 
C384: x12+x59-y12_59 <=1 
C385: x13+x15 <=1 
C386: x13+x16-y13_16 <=1 
C387: x13+x17-y13_17 <=1 
C388: x13+x20 <=1 
C389: x13+x24 <=1 
C390: x13+x25-y13_25 <=1 
C391: x13+x27-y13_27 <=1 
C392: x13+x28 <=1 
C393: x13+x29 <=1 
C394: x13+x30 <=1 
C395: x13+x32 <=1 
C396: x13+x34-y13_34 <=1 
C397: x13+x35 <=1 
C398: x13+x36-y13_36 <=1 
C399: x13+x38-y13_38 <=1 
C400: x13+x40 <=1 
C401: x13+x41-y13_41 <=1 
C402: x13+x42 <=1 
C403: x13+x44 <=1 
C404: x13+x46-y13_46 <=1 
C405: x13+x48 <=1 
C406: x13+x50-y13_50 <=1 
C407: x13+x51 <=1 
C408: x13+x52 <=1 
C409: x13+x53 <=1 
C410: x13+x54-y13_54 <=1 
C411: x13+x55 <=1 
C412: x13+x56-y13_56 <=1 
C413: x13+x58-y13_58 <=1 
C414: x14+x15 <=1 
C415: x14+x16 <=1 
C416: x14+x17-y14_17 <=1 
C417: x14+x19 <=1 
C418: x14+x21 <=1 
C419: x14+x25-y14_25 <=1 
C420: x14+x27-y14_27 <=1 
C421: x14+x28-y14_28 <=1 
C422: x14+x29 <=1 
C423: x14+x33-y14_33 <=1 
C424: x14+x34-y14_34 <=1 
C425: x14+x35 <=1 
C426: x14+x36 <=1 
C427: x14+x37-y14_37 <=1 
C428: x14+x38-y14_38 <=1 
C429: x14+x40 <=1 
C430: x14+x41-y14_41 <=1 
C431: x14+x42-y14_42 <=1 
C432: x14+x44-y14_44 <=1 
C433: x14+x45 <=1 
C434: x14+x46 <=1 
C435: x14+x47-y14_47 <=1 
C436: x14+x51 <=1 
C437: x14+x52-y14_52 <=1 
C438: x14+x53-y14_53 <=1 
C439: x14+x54 <=1 
C440: x14+x56 <=1 
C441: x14+x57-y14_57 <=1 
C442: x14+x58 <=1 
C443: x14+x59-y14_59 <=1 
C444: x15+x17-y15_17 <=1 
C445: x15+x18-y15_18 <=1 
C446: x15+x19 <=1 
C447: x15+x20-y15_20 <=1 
C448: x15+x22-y15_22 <=1 
C449: x15+x23 <=1 
C450: x15+x24-y15_24 <=1 
C451: x15+x25 <=1 
C452: x15+x26-y15_26 <=1 
C453: x15+x27 <=1 
C454: x15+x28-y15_28 <=1 
C455: x15+x29 <=1 
C456: x15+x31-y15_31 <=1 
C457: x15+x33 <=1 
C458: x15+x34 <=1 
C459: x15+x35-y15_35 <=1 
C460: x15+x36 <=1 
C461: x15+x37-y15_37 <=1 
C462: x15+x38 <=1 
C463: x15+x41 <=1 
C464: x15+x45-y15_45 <=1 
C465: x15+x46 <=1 
C466: x15+x47 <=1 
C467: x15+x49-y15_49 <=1 
C468: x15+x51 <=1 
C469: x15+x53-y15_53 <=1 
C470: x15+x54-y15_54 <=1 
C471: x15+x55-y15_55 <=1 
C472: x15+x56 <=1 
C473: x16+x18 <=1 
C474: x16+x20-y16_20 <=1 
C475: x16+x22-y16_22 <=1 
C476: x16+x23-y16_23 <=1 
C477: x16+x24 <=1 
C478: x16+x25 <=1 
C479: x16+x28-y16_28 <=1 
C480: x16+x29-y16_29 <=1 
C481: x16+x32-y16_32 <=1 
C482: x16+x35-y16_35 <=1 
C483: x16+x36-y16_36 <=1 
C484: x16+x38-y16_38 <=1 
C485: x16+x39 <=1 
C486: x16+x41-y16_41 <=1 
C487: x16+x42-y16_42 <=1 
C488: x16+x43-y16_43 <=1 
C489: x16+x45 <=1 
C490: x16+x46 <=1 
C491: x16+x51 <=1 
C492: x16+x52 <=1 
C493: x16+x57-y16_57 <=1 
C494: x16+x58 <=1 
C495: x16+x59-y16_59 <=1 
C496: x17+x18-y17_18 <=1 
C497: x17+x19-y17_19 <=1 
C498: x17+x21 <=1 
C499: x17+x22-y17_22 <=1 
C500: x17+x23 <=1 
C501: x17+x24-y17_24 <=1 
C502: x17+x26 <=1 
C503: x17+x28 <=1 
C504: x17+x29 <=1 
C505: x17+x30 <=1 
C506: x17+x31 <=1 
C507: x17+x32 <=1 
C508: x17+x35 <=1 
C509: x17+x37 <=1 
C510: x17+x38 <=1 
C511: x17+x40 <=1 
C512: x17+x42-y17_42 <=1 
C513: x17+x43 <=1 
C514: x17+x45-y17_45 <=1 
C515: x17+x47 <=1 
C516: x17+x48 <=1 
C517: x17+x50 <=1 
C518: x17+x51 <=1 
C519: x17+x53-y17_53 <=1 
C520: x17+x54-y17_54 <=1 
C521: x17+x56 <=1 
C522: x17+x57-y17_57 <=1 
C523: x17+x58 <=1 
C524: x18+x19 <=1 
C525: x18+x21 <=1 
C526: x18+x23 <=1 
C527: x18+x25 <=1 
C528: x18+x26 <=1 
C529: x18+x27-y18_27 <=1 
C530: x18+x28 <=1 
C531: x18+x31 <=1 
C532: x18+x32-y18_32 <=1 
C533: x18+x34 <=1 
C534: x18+x35-y18_35 <=1 
C535: x18+x37 <=1 
C536: x18+x38-y18_38 <=1 
C537: x18+x41 <=1 
C538: x18+x43-y18_43 <=1 
C539: x18+x46 <=1 
C540: x18+x47-y18_47 <=1 
C541: x18+x51 <=1 
C542: x18+x54-y18_54 <=1 
C543: x18+x55-y18_55 <=1 
C544: x18+x57 <=1 
C545: x18+x59-y18_59 <=1 
C546: x19+x21-y19_21 <=1 
C547: x19+x22-y19_22 <=1 
C548: x19+x23-y19_23 <=1 
C549: x19+x26 <=1 
C550: x19+x27-y19_27 <=1 
C551: x19+x28 <=1 
C552: x19+x29 <=1 
C553: x19+x31-y19_31 <=1 
C554: x19+x33-y19_33 <=1 
C555: x19+x38-y19_38 <=1 
C556: x19+x40-y19_40 <=1 
C557: x19+x42-y19_42 <=1 
C558: x19+x44 <=1 
C559: x19+x45 <=1 
C560: x19+x48-y19_48 <=1 
C561: x19+x50 <=1 
C562: x19+x51-y19_51 <=1 
C563: x19+x53-y19_53 <=1 
C564: x19+x54 <=1 
C565: x19+x56-y19_56 <=1 
C566: x19+x59 <=1 
C567: x20+x21-y20_21 <=1 
C568: x20+x23 <=1 
C569: x20+x24 <=1 
C570: x20+x25 <=1 
C571: x20+x26 <=1 
C572: x20+x27-y20_27 <=1 
C573: x20+x29 <=1 
C574: x20+x30-y20_30 <=1 
C575: x20+x34-y20_34 <=1 
C576: x20+x35 <=1 
C577: x20+x36-y20_36 <=1 
C578: x20+x37-y20_37 <=1 
C579: x20+x38-y20_38 <=1 
C580: x20+x39-y20_39 <=1 
C581: x20+x40-y20_40 <=1 
C582: x20+x41 <=1 
C583: x20+x42-y20_42 <=1 
C584: x20+x43 <=1 
C585: x20+x44-y20_44 <=1 
C586: x20+x46-y20_46 <=1 
C587: x20+x51 <=1 
C588: x20+x52-y20_52 <=1 
C589: x20+x53 <=1 
C590: x20+x54 <=1 
C591: x20+x55-y20_55 <=1 
C592: x20+x56 <=1 
C593: x20+x57-y20_57 <=1 
C594: x20+x58-y20_58 <=1 
C595: x21+x22-y21_22 <=1 
C596: x21+x24-y21_24 <=1 
C597: x21+x25 <=1 
C598: x21+x26-y21_26 <=1 
C599: x21+x27-y21_27 <=1 
C600: x21+x29 <=1 
C601: x21+x30 <=1 
C602: x21+x31-y21_31 <=1 
C603: x21+x32-y21_32 <=1 
C604: x21+x34 <=1 
C605: x21+x35 <=1 
C606: x21+x36 <=1 
C607: x21+x37 <=1 
C608: x21+x39-y21_39 <=1 
C609: x21+x40 <=1 
C610: x21+x41-y21_41 <=1 
C611: x21+x42 <=1 
C612: x21+x44-y21_44 <=1 
C613: x21+x46 <=1 
C614: x21+x49 <=1 
C615: x21+x51 <=1 
C616: x21+x53-y21_53 <=1 
C617: x21+x54-y21_54 <=1 
C618: x21+x55-y21_55 <=1 
C619: x21+x57 <=1 
C620: x22+x23-y22_23 <=1 
C621: x22+x27-y22_27 <=1 
C622: x22+x28 <=1 
C623: x22+x30-y22_30 <=1 
C624: x22+x32-y22_32 <=1 
C625: x22+x33 <=1 
C626: x22+x34-y22_34 <=1 
C627: x22+x35 <=1 
C628: x22+x36 <=1 
C629: x22+x37-y22_37 <=1 
C630: x22+x40-y22_40 <=1 
C631: x22+x41-y22_41 <=1 
C632: x22+x43 <=1 
C633: x22+x46 <=1 
C634: x22+x48 <=1 
C635: x22+x49-y22_49 <=1 
C636: x22+x51 <=1 
C637: x22+x53 <=1 
C638: x22+x54 <=1 
C639: x22+x57-y22_57 <=1 
C640: x22+x58 <=1 
C641: x22+x59-y22_59 <=1 
C642: x23+x24-y23_24 <=1 
C643: x23+x26 <=1 
C644: x23+x27 <=1 
C645: x23+x28-y23_28 <=1 
C646: x23+x29-y23_29 <=1 
C647: x23+x30-y23_30 <=1 
C648: x23+x31-y23_31 <=1 
C649: x23+x32-y23_32 <=1 
C650: x23+x34 <=1 
C651: x23+x35-y23_35 <=1 
C652: x23+x36-y23_36 <=1 
C653: x23+x37 <=1 
C654: x23+x38-y23_38 <=1 
C655: x23+x42 <=1 
C656: x23+x43 <=1 
C657: x23+x45-y23_45 <=1 
C658: x23+x50-y23_50 <=1 
C659: x23+x51 <=1 
C660: x23+x52 <=1 
C661: x23+x53-y23_53 <=1 
C662: x23+x54-y23_54 <=1 
C663: x23+x55-y23_55 <=1 
C664: x23+x56 <=1 
C665: x23+x57-y23_57 <=1 
C666: x24+x27-y24_27 <=1 
C667: x24+x28-y24_28 <=1 
C668: x24+x30-y24_30 <=1 
C669: x24+x31-y24_31 <=1 
C670: x24+x35-y24_35 <=1 
C671: x24+x36-y24_36 <=1 
C672: x24+x37 <=1 
C673: x24+x39 <=1 
C674: x24+x41 <=1 
C675: x24+x42-y24_42 <=1 
C676: x24+x43 <=1 
C677: x24+x47 <=1 
C678: x24+x49 <=1 
C679: x24+x50 <=1 
C680: x24+x52 <=1 
C681: x24+x53 <=1 
C682: x24+x54 <=1 
C683: x24+x55 <=1 
C684: x24+x56-y24_56 <=1 
C685: x25+x29 <=1 
C686: x25+x30 <=1 
C687: x25+x32 <=1 
C688: x25+x33-y25_33 <=1 
C689: x25+x35 <=1 
C690: x25+x36 <=1 
C691: x25+x38 <=1 
C692: x25+x41 <=1 
C693: x25+x42 <=1 
C694: x25+x43-y25_43 <=1 
C695: x25+x45 <=1 
C696: x25+x47-y25_47 <=1 
C697: x25+x48-y25_48 <=1 
C698: x25+x49 <=1 
C699: x25+x52-y25_52 <=1 
C700: x25+x53 <=1 
C701: x25+x54-y25_54 <=1 
C702: x25+x56 <=1 
C703: x25+x59-y25_59 <=1 
C704: x26+x27 <=1 
C705: x26+x28-y26_28 <=1 
C706: x26+x30-y26_30 <=1 
C707: x26+x31 <=1 
C708: x26+x33 <=1 
C709: x26+x34-y26_34 <=1 
C710: x26+x36 <=1 
C711: x26+x37-y26_37 <=1 
C712: x26+x39 <=1 
C713: x26+x41-y26_41 <=1 
C714: x26+x42-y26_42 <=1 
C715: x26+x44 <=1 
C716: x26+x46 <=1 
C717: x26+x47 <=1 
C718: x26+x48-y26_48 <=1 
C719: x26+x50 <=1 
C720: x26+x51 <=1 
C721: x26+x54-y26_54 <=1 
C722: x26+x55-y26_55 <=1 
C723: x26+x57 <=1 
C724: x26+x59 <=1 
C725: x27+x28-y27_28 <=1 
C726: x27+x29 <=1 
C727: x27+x30 <=1 
C728: x27+x32 <=1 
C729: x27+x35-y27_35 <=1 
C730: x27+x36 <=1 
C731: x27+x39-y27_39 <=1 
C732: x27+x41-y27_41 <=1 
C733: x27+x43 <=1 
C734: x27+x44 <=1 
C735: x27+x45-y27_45 <=1 
C736: x27+x48 <=1 
C737: x27+x49-y27_49 <=1 
C738: x27+x51 <=1 
C739: x27+x52-y27_52 <=1 
C740: x27+x53-y27_53 <=1 
C741: x27+x55 <=1 
C742: x27+x56-y27_56 <=1 
C743: x27+x57-y27_57 <=1 
C744: x27+x59 <=1 
C745: x28+x30 <=1 
C746: x28+x35 <=1 
C747: x28+x37-y28_37 <=1 
C748: x28+x39-y28_39 <=1 
C749: x28+x42 <=1 
C750: x28+x43-y28_43 <=1 
C751: x28+x44-y28_44 <=1 
C752: x28+x45 <=1 
C753: x28+x47 <=1 
C754: x28+x48 <=1 
C755: x28+x49-y28_49 <=1 
C756: x28+x51 <=1 
C757: x28+x52-y28_52 <=1 
C758: x28+x54-y28_54 <=1 
C759: x28+x57-y28_57 <=1 
C760: x28+x58-y28_58 <=1 
C761: x29+x30 <=1 
C762: x29+x32 <=1 
C763: x29+x34 <=1 
C764: x29+x36-y29_36 <=1 
C765: x29+x40 <=1 
C766: x29+x44 <=1 
C767: x29+x45-y29_45 <=1 
C768: x29+x49-y29_49 <=1 
C769: x29+x50 <=1 
C770: x29+x51-y29_51 <=1 
C771: x29+x53 <=1 
C772: x29+x54 <=1 
C773: x29+x56 <=1 
C774: x29+x59 <=1 
C775: x30+x31-y30_31 <=1 
C776: x30+x32-y30_32 <=1 
C777: x30+x33 <=1 
C778: x30+x34-y30_34 <=1 
C779: x30+x37 <=1 
C780: x30+x39 <=1 
C781: x30+x40 <=1 
C782: x30+x41 <=1 
C783: x30+x45-y30_45 <=1 
C784: x30+x48-y30_48 <=1 
C785: x30+x49 <=1 
C786: x30+x50 <=1 
C787: x30+x53-y30_53 <=1 
C788: x30+x55-y30_55 <=1 
C789: x30+x59 <=1 
C790: x31+x33 <=1 
C791: x31+x34-y31_34 <=1 
C792: x31+x36-y31_36 <=1 
C793: x31+x37-y31_37 <=1 
C794: x31+x38-y31_38 <=1 
C795: x31+x39 <=1 
C796: x31+x40-y31_40 <=1 
C797: x31+x42-y31_42 <=1 
C798: x31+x44-y31_44 <=1 
C799: x31+x45 <=1 
C800: x31+x48 <=1 
C801: x31+x50-y31_50 <=1 
C802: x31+x51-y31_51 <=1 
C803: x31+x52-y31_52 <=1 
C804: x31+x53-y31_53 <=1 
C805: x31+x54 <=1 
C806: x31+x55 <=1 
C807: x31+x56 <=1 
C808: x31+x58 <=1 
C809: x31+x59 <=1 
C810: x32+x33 <=1 
C811: x32+x35 <=1 
C812: x32+x36 <=1 
C813: x32+x37 <=1 
C814: x32+x38 <=1 
C815: x32+x40 <=1 
C816: x32+x41-y32_41 <=1 
C817: x32+x42-y32_42 <=1 
C818: x32+x43 <=1 
C819: x32+x45 <=1 
C820: x32+x47-y32_47 <=1 
C821: x32+x51-y32_51 <=1 
C822: x32+x53 <=1 
C823: x32+x54-y32_54 <=1 
C824: x32+x55-y32_55 <=1 
C825: x32+x56-y32_56 <=1 
C826: x32+x58 <=1 
C827: x32+x59 <=1 
C828: x33+x36 <=1 
C829: x33+x38-y33_38 <=1 
C830: x33+x40-y33_40 <=1 
C831: x33+x43 <=1 
C832: x33+x45 <=1 
C833: x33+x46-y33_46 <=1 
C834: x33+x50-y33_50 <=1 
C835: x33+x51 <=1 
C836: x33+x55 <=1 
C837: x33+x57 <=1 
C838: x33+x58-y33_58 <=1 
C839: x33+x59-y33_59 <=1 
C840: x34+x41 <=1 
C841: x34+x42-y34_42 <=1 
C842: x34+x43 <=1 
C843: x34+x45-y34_45 <=1 
C844: x34+x46 <=1 
C845: x34+x47-y34_47 <=1 
C846: x34+x48-y34_48 <=1 
C847: x34+x49 <=1 
C848: x34+x50 <=1 
C849: x34+x51-y34_51 <=1 
C850: x34+x52-y34_52 <=1 
C851: x34+x56-y34_56 <=1 
C852: x34+x58 <=1 
C853: x35+x38-y35_38 <=1 
C854: x35+x39-y35_39 <=1 
C855: x35+x42-y35_42 <=1 
C856: x35+x44 <=1 
C857: x35+x45-y35_45 <=1 
C858: x35+x47-y35_47 <=1 
C859: x35+x48 <=1 
C860: x35+x50 <=1 
C861: x35+x52 <=1 
C862: x35+x53-y35_53 <=1 
C863: x35+x56 <=1 
C864: x35+x57-y35_57 <=1 
C865: x36+x39-y36_39 <=1 
C866: x36+x41 <=1 
C867: x36+x42 <=1 
C868: x36+x44 <=1 
C869: x36+x45 <=1 
C870: x36+x47 <=1 
C871: x36+x51-y36_51 <=1 
C872: x36+x53-y36_53 <=1 
C873: x36+x55 <=1 
C874: x36+x56 <=1 
C875: x36+x58 <=1 
C876: x37+x38 <=1 
C877: x37+x42 <=1 
C878: x37+x44-y37_44 <=1 
C879: x37+x45 <=1 
C880: x37+x51 <=1 
C881: x37+x52 <=1 
C882: x37+x53 <=1 
C883: x37+x54-y37_54 <=1 
C884: x37+x55 <=1 
C885: x37+x56-y37_56 <=1 
C886: x37+x58-y37_58 <=1 
C887: x37+x59-y37_59 <=1 
C888: x38+x40-y38_40 <=1 
C889: x38+x41 <=1 
C890: x38+x42-y38_42 <=1 
C891: x38+x43 <=1 
C892: x38+x44 <=1 
C893: x38+x45-y38_45 <=1 
C894: x38+x46-y38_46 <=1 
C895: x38+x47 <=1 
C896: x38+x48-y38_48 <=1 
C897: x38+x49-y38_49 <=1 
C898: x38+x50 <=1 
C899: x38+x51-y38_51 <=1 
C900: x38+x52 <=1 
C901: x38+x53 <=1 
C902: x38+x54 <=1 
C903: x38+x55-y38_55 <=1 
C904: x38+x56 <=1 
C905: x38+x58-y38_58 <=1 
C906: x39+x40 <=1 
C907: x39+x42 <=1 
C908: x39+x44 <=1 
C909: x39+x45 <=1 
C910: x39+x46 <=1 
C911: x39+x47-y39_47 <=1 
C912: x39+x49-y39_49 <=1 
C913: x39+x50-y39_50 <=1 
C914: x39+x52-y39_52 <=1 
C915: x39+x53 <=1 
C916: x39+x57-y39_57 <=1 
C917: x39+x58 <=1 
C918: x40+x41 <=1 
C919: x40+x42-y40_42 <=1 
C920: x40+x47-y40_47 <=1 
C921: x40+x49-y40_49 <=1 
C922: x40+x53 <=1 
C923: x40+x54-y40_54 <=1 
C924: x40+x56-y40_56 <=1 
C925: x40+x59 <=1 
C926: x41+x42 <=1 
C927: x41+x43 <=1 
C928: x41+x45 <=1 
C929: x41+x46-y41_46 <=1 
C930: x41+x47-y41_47 <=1 
C931: x41+x53-y41_53 <=1 
C932: x41+x54-y41_54 <=1 
C933: x41+x56 <=1 
C934: x41+x58 <=1 
C935: x42+x48 <=1 
C936: x42+x49-y42_49 <=1 
C937: x42+x50 <=1 
C938: x42+x51-y42_51 <=1 
C939: x42+x52 <=1 
C940: x42+x54-y42_54 <=1 
C941: x42+x59-y42_59 <=1 
C942: x43+x45 <=1 
C943: x43+x47 <=1 
C944: x43+x48-y43_48 <=1 
C945: x43+x50 <=1 
C946: x43+x52 <=1 
C947: x43+x55 <=1 
C948: x43+x56 <=1 
C949: x43+x57 <=1 
C950: x43+x59-y43_59 <=1 
C951: x44+x45 <=1 
C952: x44+x47-y44_47 <=1 
C953: x44+x49-y44_49 <=1 
C954: x44+x51-y44_51 <=1 
C955: x44+x53 <=1 
C956: x44+x55 <=1 
C957: x44+x56 <=1 
C958: x44+x58-y44_58 <=1 
C959: x44+x59-y44_59 <=1 
C960: x45+x46 <=1 
C961: x45+x47-y45_47 <=1 
C962: x45+x49 <=1 
C963: x45+x50 <=1 
C964: x45+x52-y45_52 <=1 
C965: x45+x55 <=1 
C966: x45+x56-y45_56 <=1 
C967: x45+x59 <=1 
C968: x46+x47-y46_47 <=1 
C969: x46+x49 <=1 
C970: x46+x50 <=1 
C971: x46+x52-y46_52 <=1 
C972: x46+x53 <=1 
C973: x46+x57-y46_57 <=1 
C974: x47+x48-y47_48 <=1 
C975: x47+x49-y47_49 <=1 
C976: x47+x51 <=1 
C977: x47+x53 <=1 
C978: x47+x54 <=1 
C979: x47+x55-y47_55 <=1 
C980: x47+x57 <=1 
C981: x47+x59-y47_59 <=1 
C982: x48+x50-y48_50 <=1 
C983: x48+x51-y48_51 <=1 
C984: x48+x52-y48_52 <=1 
C985: x48+x53-y48_53 <=1 
C986: x48+x54-y48_54 <=1 
C987: x48+x57-y48_57 <=1 
C988: x48+x58-y48_58 <=1 
C989: x48+x59 <=1 
C990: x49+x50-y49_50 <=1 
C991: x49+x51-y49_51 <=1 
C992: x49+x52-y49_52 <=1 
C993: x49+x53 <=1 
C994: x49+x54-y49_54 <=1 
C995: x49+x55-y49_55 <=1 
C996: x49+x58 <=1 
C997: x49+x59-y49_59 <=1 
C998: x50+x51 <=1 
C999: x50+x52-y50_52 <=1 
C1000: x50+x53-y50_53 <=1 
C1001: x50+x54 <=1 
C1002: x50+x57 <=1 
C1003: x50+x58 <=1 
C1004: x50+x59 <=1 
C1005: x51+x52-y51_52 <=1 
C1006: x51+x55-y51_55 <=1 
C1007: x51+x57 <=1 
C1008: x51+x58 <=1 
C1009: x51+x59 <=1 
C1010: x52+x54 <=1 
C1011: x52+x56-y52_56 <=1 
C1012: x52+x59 <=1 
C1013: x53+x55 <=1 
C1014: x53+x56 <=1 
C1015: x53+x59-y53_59 <=1 
C1016: x54+x56-y54_56 <=1 
C1017: x54+x59 <=1 
C1018: x55+x56-y55_56 <=1 
C1019: x55+x57 <=1 
C1020: x56+x57-y56_57 <=1 
C1021: x57+x58 <=1 
C1022: x57+x59-y57_59 <=1 
C1023: x58+x59-y58_59 <=1 

binary
x0
x1
x2
x3
x4
x5
x6
x7
x8
x9
x10
x11
x12
x13
x14
x15
x16
x17
x18
x19
x20
x21
x22
x23
x24
x25
x26
x27
x28
x29
x30
x31
x32
x33
x34
x35
x36
x37
x38
x39
x40
x41
x42
x43
x44
x45
x46
x47
x48
x49
x50
x51
x52
x53
x54
x55
x56
x57
x58
x59
