problem_generation/data/GISP/train/er_n=60_m=1023_p=0.60_SET2_setparam=100.00_alpha=0.50_513.sol
objective value:                                 1179
x6                                                  1 	(obj:100)
x8                                                  1 	(obj:100)
x14                                                 1 	(obj:100)
x18                                                 1 	(obj:100)
x20                                                 1 	(obj:100)
x33                                                 1 	(obj:100)
x44                                                 1 	(obj:100)
x47                                                 1 	(obj:100)
x48                                                 1 	(obj:100)
x49                                                 1 	(obj:100)
x50                                                 1 	(obj:100)
x52                                                 1 	(obj:100)
y6_48                                               1 	(obj:-1)
y44_47                                              1 	(obj:-1)
y14_33                                              1 	(obj:-1)
y47_48                                              1 	(obj:-1)
y6_47                                               1 	(obj:-1)
y6_33                                               1 	(obj:-1)
y20_52                                              1 	(obj:-1)
y50_52                                              1 	(obj:-1)
y49_50                                              1 	(obj:-1)
y8_44                                               1 	(obj:-1)
y18_47                                              1 	(obj:-1)
y33_50                                              1 	(obj:-1)
y48_52                                              1 	(obj:-1)
y44_49                                              1 	(obj:-1)
y14_44                                              1 	(obj:-1)
y47_49                                              1 	(obj:-1)
y20_44                                              1 	(obj:-1)
y49_52                                              1 	(obj:-1)
y14_52                                              1 	(obj:-1)
y48_50                                              1 	(obj:-1)
y14_47                                              1 	(obj:-1)
